c Arquivo convertido de cubic_200.txt
p edge 200 300
e 0 62
e 0 125
e 0 188
e 1 92
e 1 146
e 1 170
e 2 34
e 2 107
e 2 193
e 3 50
e 3 159
e 3 176
e 4 8
e 4 136
e 4 197
e 5 11
e 5 41
e 5 131
e 6 19
e 6 143
e 6 144
e 7 80
e 7 83
e 7 191
e 8 30
e 8 195
e 9 43
e 9 57
e 9 100
e 10 155
e 10 181
e 10 196
e 11 98
e 11 187
e 12 44
e 12 55
e 12 177
e 13 78
e 13 161
e 13 172
e 14 23
e 14 42
e 14 156
e 15 53
e 15 63
e 15 194
e 16 52
e 16 174
e 16 193
e 17 68
e 17 145
e 17 198
e 18 64
e 18 81
e 18 160
e 19 97
e 19 133
e 20 109
e 20 129
e 20 171
e 21 61
e 21 68
e 21 130
e 22 28
e 22 158
e 22 191
e 23 144
e 23 165
e 24 53
e 24 87
e 24 162
e 25 70
e 25 138
e 25 191
e 26 32
e 26 58
e 26 107
e 27 62
e 27 123
e 27 190
e 28 40
e 28 51
e 29 74
e 29 115
e 29 187
e 30 56
e 30 149
e 31 79
e 31 92
e 31 180
e 32 111
e 32 128
e 33 96
e 33 101
e 33 124
e 34 181
e 34 190
e 35 67
e 35 93
e 35 140
e 36 78
e 36 123
e 36 134
e 37 48
e 37 135
e 37 141
e 38 41
e 38 160
e 38 169
e 39 46
e 39 147
e 39 183
e 40 157
e 40 166
e 41 110
e 42 54
e 42 196
e 43 91
e 43 126
e 44 48
e 44 139
e 45 46
e 45 85
e 45 141
e 46 159
e 47 81
e 47 168
e 47 185
e 48 184
e 49 55
e 49 162
e 49 198
e 50 172
e 50 190
e 51 101
e 51 114
e 52 135
e 52 146
e 53 99
e 54 131
e 54 142
e 55 92
e 56 102
e 56 186
e 57 134
e 57 147
e 58 63
e 58 79
e 59 82
e 59 109
e 59 140
e 60 65
e 60 80
e 60 173
e 61 130
e 61 136
e 62 72
e 63 164
e 64 170
e 64 192
e 65 146
e 65 152
e 66 100
e 66 178
e 66 188
e 67 72
e 67 87
e 68 164
e 69 119
e 69 145
e 69 151
e 70 127
e 70 180
e 71 75
e 71 121
e 71 165
e 72 156
e 73 156
e 73 159
e 73 194
e 74 117
e 74 173
e 75 108
e 75 115
e 76 97
e 76 112
e 76 157
e 77 95
e 77 116
e 77 147
e 78 84
e 79 172
e 80 116
e 81 83
e 82 102
e 82 103
e 83 155
e 84 169
e 84 173
e 85 132
e 85 166
e 86 107
e 86 137
e 86 150
e 87 154
e 88 93
e 88 99
e 88 103
e 89 112
e 89 113
e 89 120
e 90 114
e 90 161
e 90 183
e 91 133
e 91 177
e 93 194
e 94 118
e 94 144
e 94 162
e 95 109
e 95 118
e 96 122
e 96 125
e 97 163
e 98 115
e 98 183
e 99 167
e 100 117
e 101 169
e 102 151
e 103 196
e 104 118
e 104 124
e 104 179
e 105 120
e 105 145
e 105 177
e 106 110
e 106 117
e 106 195
e 108 136
e 108 140
e 110 179
e 111 119
e 111 120
e 112 189
e 113 123
e 113 187
e 114 168
e 116 121
e 119 124
e 121 176
e 122 134
e 122 157
e 125 132
e 126 155
e 126 166
e 127 132
e 127 199
e 128 139
e 128 158
e 129 154
e 129 171
e 130 184
e 131 193
e 133 138
e 135 189
e 137 158
e 137 197
e 138 199
e 139 188
e 141 171
e 142 151
e 142 161
e 143 184
e 143 185
e 148 160
e 148 178
e 148 180
e 149 152
e 149 192
e 150 186
e 150 198
e 152 186
e 153 170
e 153 174
e 153 175
e 154 164
e 163 179
e 163 185
e 165 167
e 167 175
e 168 174
e 175 176
e 178 182
e 181 182
e 182 197
e 189 192
e 195 199
